<number of tasks>
20


<number of equipment>
5


<cycle time>
1000


<investment costs>
1,11775
2,25603
3,21622
4,14885
5,10015


<task times>
1,-1,-1,241,428,510
2,400,225,217,-1,-1
3,320,125,184,-1,-1
4,360,123,132,-1,-1
5,307,118,147,-1,-1
6,292,128,198,-1,-1
7,-1,-1,166,147,340
8,-1,122,-1,319,-1
9,-1,131,-1,263,-1
10,-1,123,-1,208,-1
11,277,116,169,-1,-1
12,-1,-1,232,337,432
13,-1,-1,225,341,437
14,-1,-1,264,302,376
15,394,181,210,-1,-1
16,333,65,55,-1,-1
17,-1,-1,197,284,297
18,387,261,214,-1,-1
19,-1,-1,188,230,166
20,369,144,308,-1,-1


<precedence relations>
1,5
2,4
2,5
3,4
3,5
4,6
4,7
4,8
5,6
5,7
5,8
6,12
7,10
7,14
8,9
9,11
10,13
10,15
10,18
11,12
12,13
12,14
12,15
13,16
13,17
14,16
14,18
15,16
17,20
18,19


<task types>
1,2
2,3
3,3
4,3
5,3
6,3
7,2
8,1
9,1
10,1
11,3
12,2
13,2
14,2
15,3
16,3
17,2
18,3
19,2
20,3


<line depot>
1,1
2,0
3,3
4,3
5,0


<processing costs>
1,7200
2,14400
3,14400
4,14400
5,7200


<saving costs>
1,1177
2,2560
3,2162
4,1488
5,1001


<end>
